62 62
17 33
27 60
5 1
3 55
10 53
16 61
7 56
13 29
15 47
10 19
28 15
18 22
4 41
28 10
17 9
30 27
22 24
16 6
19 16
11 21
8 18
2 37
8 5
23 35
1 40
12 34
21 14
14 54
7 58
6 17
25 32
12 42
9 51
20 11
14 45
26 8
5 26
31 43
1 3
22 52
6 31
31 50
19 36
20 2
21 46
24 13
27 23
29 7
13 62
24 39
3 30
18 25
26 20
4 12
30 28
25 44
11 57
23 48
9 38
29 59
15 4
2 49
